27 3
5 6 3
0 0 0 0 25 2 3 4 5 6 7 8 9 10 11 12 13 14 15 16 17 18 19 20 21 22 23 24 25 26
3 0 3 1 5 27 26 9 20 20
3 1 1 1 6 27 8 25 17 11 6
5 2 0 1 2 27 7
3 1 0 0 4 27 23 8 24
2 1 2 0 3 27 14 15
5 0 2 0 3 27 25 18
3 0 3 0 5 27 18 25 25 10
1 0 1 1 4 27 17 16 19
5 1 2 0 2 27 18
2 2 3 0 7 27 13 19 12 24 24 19
4 2 1 1 2 27 15
3 2 0 1 3 27 23 21
1 2 1 0 4 27 15 22 17
4 0 3 0 2 27 21
4 1 2 1 3 27 19 26
4 2 2 1 3 27 21 22
5 0 2 0 1 27
5 0 2 0 1 27
2 0 0 0 2 27 22
1 1 3 0 1 27
5 0 3 1 1 27
2 1 2 1 2 27 24
2 1 0 0 2 27 26
2 0 0 0 1 27
1 0 0 1 1 27
0 0 0 0 0
